(declare-fun bvlambda_40_ ()Bool         )
(declare-fun bvlambda_41_ () (_ BitVec 6))
(declare-fun bvlambda_42_ () (_ BitVec 9))
(declare-fun a125 () (Array (_ BitVec 1) (_ BitVec 2)))
(assert
(let (($e1 (_ bv0 1)))
(let (($e23 (_ bv2046 11)))
(let (($e47 (_ bv2046 14)))
(let (($e52 (_ bv2046 15)))
(let (($e184 (concat $e1          bvlambda_41_)))
(let (($e185 (concat $e184 bvlambda_42_)))
(let (($e241 (select a125 true       )))
(let (($e260 (store a125 bvlambda_40_ $e241)))
(let (($e261 (select $e260 $e1)))
(let (($e263 (concat        $e47  $e261)))
(let (($e266      (bvult $e185 $e263)         ))
(let (($e552         $e23       ))
(let (($e567         $e184              ))
(let (($e622 (store a125 $e1 $e241)))
(let (($e623 (select $e622 $e266       )))
(let (($e628 (   extract        $e623)))
(let (($e636                             $e628  ))
(let (($e761                      $e266 ))
(let (($e763                             $e761  ))
(let (($e896                   $e552 ))
                  (= $e628 $e266)
                                                                                                                                                                                                                                                                                                                                                                                                                                                                                                               )                                                                                                                                    ) )                                                                                                                            )       )    ))                                                      )              )                                                                                                                                                                                                                                                                                             )  ) ))                  )                                                       ))                                                                             )    )                       )                     ))
